
Welcome to IBM(R) ILOG(R) CPLEX(R) Interactive Optimizer 22.1.1.0
  with Simplex, Mixed Integer & Barrier Optimizers
5725-A06 5725-A29 5724-Y48 5724-Y49 5724-Y54 5724-Y55 5655-Y21
Copyright IBM Corp. 1988, 2022.  All Rights Reserved.

Type 'help' for a list of available commands.
Type 'help' followed by a command name for more
information on commands.

CPLEX> Selected objective sense:  MINIMIZE
Selected objective  name:  00000000
Selected RHS        name:  RHS1
Selected bound      name:  BOUND
Problem 'ee.mps' read.
Read time = 0.01 sec. (3.14 ticks)
CPLEX> New value for time limit in seconds: 7200
CPLEX> New value for parallel optimization mode: -1
CPLEX> New value for default parallel thread count: 40
CPLEX> New value for mixed integer optimality gap tolerance: 1e-13
CPLEX> Version identifier: 22.1.1.0 | 2022-11-28 | 9160aff4d
CPXPARAM_Threads                                 40
CPXPARAM_Parallel                                -1
CPXPARAM_TimeLimit                               7200
CPXPARAM_MIP_Tolerances_MIPGap                   1e-13
Found incumbent of value 0.000000 after 0.00 sec. (0.31 ticks)
Tried aggregator 2 times.
MIP Presolve eliminated 182 rows and 2745 columns.
MIP Presolve modified 5862 coefficients.
Aggregator did 713 substitutions.
Reduced MIP has 3623 rows, 7739 columns, and 28643 nonzeros.
Reduced MIP has 7739 binaries, 0 generals, 0 SOSs, and 0 indicators.
Presolve time = 0.06 sec. (68.55 ticks)
Probing time = 0.03 sec. (5.29 ticks)
Tried aggregator 1 time.
Detecting symmetries...
Reduced MIP has 3623 rows, 7739 columns, and 28643 nonzeros.
Reduced MIP has 7739 binaries, 0 generals, 0 SOSs, and 0 indicators.
Presolve time = 0.02 sec. (21.82 ticks)
Probing time = 0.02 sec. (5.09 ticks)
Clique table members: 18551.
MIP emphasis: balance optimality and feasibility.
MIP search method: dynamic search.
Parallel mode: opportunistic, using up to 40 threads.
Root relaxation solution time = 0.11 sec. (76.19 ticks)

        Nodes                                         Cuts/
   Node  Left     Objective  IInf  Best Integer    Best Bound    ItCnt     Gap

*     0+    0                            0.0000  -1.31000e+13              --- 
*     0+    0                      -7.70000e+12  -1.31000e+13            70.13%
      0     0  -1.30900e+13    62  -7.70000e+12  -1.30900e+13     2096   70.00%
*     0+    0                      -1.30900e+13  -1.30900e+13             0.00%
*     0+    0                      -1.30900e+13  -1.30900e+13             0.00%
      0     0  -1.30900e+13   114  -1.30900e+13      Cuts: 62     3378    0.00%
*     0+    0                      -1.30900e+13  -1.30900e+13             0.00%
      0     0  -1.30900e+13   146  -1.30900e+13      Cuts: 60     3561    0.00%
*     0+    0                      -1.30900e+13  -1.30900e+13             0.00%

Repeating presolve.
Tried aggregator 3 times.
MIP Presolve eliminated 1614 rows and 3794 columns.
MIP Presolve added 4 rows and 0 columns.
MIP Presolve modified 124 coefficients.
Aggregator did 363 substitutions.
Reduced MIP has 1650 rows, 3555 columns, and 12446 nonzeros.
Reduced MIP has 3555 binaries, 0 generals, 0 SOSs, and 0 indicators.
Presolve time = 0.06 sec. (60.43 ticks)
Probing fixed 48 vars, tightened 0 bounds.
Probing time = 0.04 sec. (13.20 ticks)
Tried aggregator 2 times.
MIP Presolve eliminated 39 rows and 60 columns.
Aggregator did 7 substitutions.
Reduced MIP has 1604 rows, 3488 columns, and 12182 nonzeros.
Reduced MIP has 3488 binaries, 0 generals, 0 SOSs, and 0 indicators.
Presolve time = 0.02 sec. (19.72 ticks)
Probing time = 0.04 sec. (12.32 ticks)
Tried aggregator 1 time.
Detecting symmetries...
MIP Presolve eliminated 14 rows and 9 columns.
Reduced MIP has 1590 rows, 3479 columns, and 12140 nonzeros.
Reduced MIP has 3479 binaries, 0 generals, 0 SOSs, and 0 indicators.
Presolve time = 0.02 sec. (13.81 ticks)
Represolve time = 0.20 sec. (137.68 ticks)
Probing time = 0.02 sec. (4.97 ticks)
Clique table members: 8265.
MIP emphasis: balance optimality and feasibility.
MIP search method: dynamic search.
Parallel mode: opportunistic, using up to 40 threads.
Root relaxation solution time = 0.04 sec. (25.77 ticks)

        Nodes                                         Cuts/
   Node  Left     Objective  IInf  Best Integer    Best Bound    ItCnt     Gap

*     0+    0                      -1.30900e+13  -1.30900e+13             0.00%
      0     0  -1.30900e+13    82  -1.30900e+13  -1.30900e+13     4509    0.00%
      0     0  -1.30900e+13   120  -1.30900e+13      Cuts: 69     4684    0.00%
      0     0  -1.30900e+13   139  -1.30900e+13      Cuts: 54     4952    0.00%
      0     3    infeasible        -1.30900e+13  -1.30900e+13     5591    0.00%
Elapsed time = 1.78 sec. (1085.48 ticks, tree = 0.02 MB, solutions = 6)
    982    96  -1.30900e+13    70  -1.30900e+13  -1.30900e+13    44311    0.00%
*  2142   249      integral     0  -1.30900e+13  -1.30900e+13   164569    0.00%
   2343   264        cutoff        -1.30900e+13  -1.30900e+13   140837    0.00%
   3488   237        cutoff        -1.30900e+13  -1.30900e+13   176448    0.00%
   3986   105        cutoff        -1.30900e+13  -1.30900e+13   207523    0.00%

GUB cover cuts applied:  2
Clique cuts applied:  30
Cover cuts applied:  627
Flow cuts applied:  6
Mixed integer rounding cuts applied:  6
Zero-half cuts applied:  16
Lift and project cuts applied:  18
Gomory fractional cuts applied:  19

Root node processing (before b&c):
  Real time             =    1.41 sec. (1085.42 ticks)
Parallel b&c, 40 threads:
  Real time             =    2.03 sec. (1056.33 ticks)
  Sync time (average)   =    0.73 sec.
  Wait time (average)   =    0.00 sec.
                          ------------
Total (root+branch&cut) =    3.44 sec. (2141.75 ticks)

Solution pool: 12 solutions saved.

MIP - Integer optimal solution:  Objective = -1.3089999989e+13
Solution time =    3.50 sec.  Iterations = 254589  Nodes = 4029
Deterministic time = 2141.79 ticks  (611.22 ticks/sec)

CPLEX> Solution 'p13' written to file 'ee.sol'.
CPLEX> 